(set-logic QF_SLIA)
(declare-const result String)
(declare-const attack String)
(declare-const prefix RegLan)
(declare-const infix RegLan)
(declare-const postfix RegLan)
(declare-const postfixs String)

(assert (str.in_re attack (re.++ prefix ((_ re.loop 10000 10000) infix) postfix)))
(assert (= prefix 
     (re.++  (str.to_re "\u{4d}") (re.++  (str.to_re "\u{53}") (re.++  (str.to_re "\u{49}") (re.++  (str.to_re "\u{45}") (re.++  (str.to_re "\u{20}") (re.++  (str.to_re "\u{31}") re.allchar))))))
))
(assert (= infix 
        (re.inter  (re.++ (re.+ (re.range "0" "9") ) (re.* re.allchar ))  (re.++ (re.+ (re.range "0" "9") ) (re.* re.allchar )) )
))
(assert (= postfix 
         (str.to_re "\u{40}")
))
(assert (str.in_re postfixs postfix))
(assert (>= (str.len postfixs) 1))
(assert (= result (str.++ attack postfixs)))
(check-sat)
(get-model)